nNurses = 140;
nHours = 35;
minHours = 4;
maxHours = 9;
maxConsec = 9;
maxPresence = 25;
demand = [11, 10, 7, 6, 11, 8, 7, 7, 12, 11, 6, 7, 12, 9, 7, 11, 12, 8, 12, 17, 17, 14, 16, 17, 14, 9, 7, 8, 8, 10, 6, 10, 14, 13, 13];
